100
31 73
11 67
52 96
81 29
97 62
71 5
6 56
48 50
91 17
49 68
85 29
11 16
74 98
56 37
13 81
66 80
96 55
36 17
32 23
6 13
64 30
87 5
75 61
40 72
1 44
60 95
27 49
15 33
46 53
28 43
3 9
1 100
53 46
98 8
6 25
7 81
96 88
2 35
32 94
95 94
9 11
96 16
90 68
33 31
6 59
DEMAND_SECTION Optimal value: 944
0 
19 
2 
12 
20 
6 
17 
8 
14 
2 
8 
5 
7 
22 
14 
17 
23 
15 
21 
2 
24 
10 
20 
6 
21 
10 
6 
13 
21 
24 
11 
16 
8 
11 
11 
22 
17 
22 
17 
8 
23 
5 
3 
18 
12 